100
32
6
28
27
12
2
28
21
20
17
16
6
9
9
8
13
9
9
13
8
9
2
8
9
10
6
3
1
17
1
2
1
2
2
1
1
1
3
2
2
17
5
1
4
1
1
5
1
3
19
4
1
5
1
1
2
3
1
2
4
1
1
22
17
1
2
1
1
4
1
2
1
1
1
1
5
19
17
2
1
1
6
2
1
2
20
2
1
1
1
1
1
1
1
2
2
7
16
1
4
3